Solver command line: ['C:\\Users\\jovelasc\\Anaconda3\\envs\\opthimus\\Library\\bin\\glpsol.exe', '--write', 'C:\\Users\\jovelasc\\AppData\\Local\\Temp\\tmpe7fbsn7c.glpk.raw', '--wglp', 'C:\\Users\\jovelasc\\AppData\\Local\\Temp\\tmpiiwmy2mz.glpk.glp', '--cpxlp', 'C:\\Users\\jovelasc\\AppData\\Local\\Temp\\tmpnr4f8dy1.pyomo.lp']

GLPSOL--GLPK LP/MIP Solver 5.0
Parameter(s) specified in the command line:
 --write C:\Users\jovelasc\AppData\Local\Temp\tmpe7fbsn7c.glpk.raw --wglp
 C:\Users\jovelasc\AppData\Local\Temp\tmpiiwmy2mz.glpk.glp --cpxlp C:\Users\jovelasc\AppData\Local\Temp\tmpnr4f8dy1.pyomo.lp
Reading problem data from 'C:\Users\jovelasc\AppData\Local\Temp\tmpnr4f8dy1.pyomo.lp'...
3 rows, 2 columns, 5 non-zeros
27 lines were read
Writing problem data to 'C:\Users\jovelasc\AppData\Local\Temp\tmpiiwmy2mz.glpk.glp'...
18 lines were written
GLPK Simplex Optimizer 5.0
3 rows, 2 columns, 5 non-zeros
Preprocessing...
2 rows, 2 columns, 4 non-zeros
Scaling...
 A: min|aij| =  1.000e+00  max|aij| =  2.000e+00  ratio =  2.000e+00
Problem data seem to be well scaled
Constructing initial basis...
Size of triangular part is 2
*     0: obj =  -0.000000000e+00 inf =   0.000e+00 (2)
*     3: obj =   2.600000000e+03 inf =   0.000e+00 (0)
OPTIMAL LP SOLUTION FOUND
Time used:   0.0 secs
Memory used: 0.0 Mb (40412 bytes)
Writing basic solution to 'C:\Users\jovelasc\AppData\Local\Temp\tmpe7fbsn7c.glpk.raw'...
14 lines were written

